702 5
10 10 10 10 10 

0 0 0 0 0 0 5 2 54 106 158 170 
0 0 0 0 0 0 5 3 4 5 8 12 
4 2 7 5 4 5 2 15 6 
6 10 7 9 7 7 2 10 7 
9 7 7 10 9 9 2 15 7 
2 8 3 9 9 9 4 17 11 10 9 
3 8 9 8 4 5 5 17 16 13 11 9 
8 8 9 4 3 5 3 17 10 9 
3 8 6 10 10 9 4 27 19 18 14 
7 10 5 6 6 9 3 20 16 13 
3 10 7 8 2 10 4 27 22 19 18 
3 10 10 8 6 8 4 27 23 22 18 
6 6 9 5 9 6 4 27 24 22 19 
10 8 5 6 10 9 4 24 22 21 20 
1 7 6 6 4 7 4 27 24 21 19 
4 5 5 10 8 3 4 27 24 23 21 
3 9 9 10 10 8 3 27 19 652 
1 10 5 10 6 5 2 24 21 
6 6 10 6 10 9 2 28 23 
9 5 9 10 8 6 2 28 23 
3 8 5 8 10 5 3 29 28 25 
4 5 5 10 10 6 3 29 28 26 
7 10 6 9 10 5 2 29 25 
10 3 8 7 10 10 3 31 30 28 
9 5 10 5 6 10 2 31 26 
2 10 9 7 10 7 4 35 34 32 30 
1 7 7 8 6 2 4 35 34 32 31 
6 6 10 5 10 10 3 35 34 32 
5 8 8 5 5 8 3 34 32 31 
9 9 7 7 5 4 2 39 33 
10 10 10 7 9 8 6 52 40 39 38 37 36 
7 9 9 8 9 9 1 33 
1 10 6 8 5 5 6 52 51 40 38 37 36 
6 4 10 8 10 7 5 52 51 38 37 36 
3 9 6 10 7 8 4 40 39 37 36 
7 6 6 9 4 7 8 49 47 46 45 44 43 42 41 
6 10 3 9 8 7 5 47 46 45 44 42 
10 3 10 9 10 10 4 48 47 46 45 
3 7 10 9 6 4 4 51 49 43 42 
4 10 2 7 6 10 3 44 43 42 
8 4 7 10 6 10 2 50 48 
6 10 10 8 8 9 1 53 
10 8 6 6 8 10 1 53 
3 8 10 6 10 10 1 53 
4 9 10 9 8 10 1 53 
6 10 10 5 10 7 1 53 
3 7 10 7 8 5 1 53 
1 6 10 7 7 9 1 53 
1 6 8 7 10 7 1 53 
10 6 8 5 4 7 1 53 
3 5 7 4 10 10 1 53 
2 10 4 6 5 10 1 53 
0 0 0 0 0 0 1 702 
0 0 0 0 0 0 3 55 57 58 
9 3 1 4 1 1 3 60 59 56 
1 6 5 9 10 5 6 69 65 64 63 62 61 
1 10 10 6 8 6 3 65 62 59 
5 10 10 10 8 10 2 62 59 
8 8 7 5 7 7 4 69 68 63 61 
6 8 9 4 4 5 3 69 62 61 
6 8 8 4 7 10 4 71 70 66 330 
9 6 7 4 5 6 3 73 68 67 
7 4 9 10 8 8 3 73 71 67 
3 7 8 10 8 10 4 78 75 73 71 
1 5 8 10 8 6 3 73 72 70 
7 7 7 9 10 10 3 75 73 72 
9 9 9 9 5 9 2 75 70 
7 7 8 8 10 9 2 72 70 
8 10 7 8 7 9 2 73 70 
1 5 5 10 4 8 3 78 76 74 
5 10 8 7 7 10 1 72 
6 6 10 8 8 6 2 77 74 
1 7 10 8 10 9 2 80 76 
10 7 10 7 8 7 3 81 80 79 
5 10 9 10 7 7 3 81 80 79 
10 7 10 8 5 10 1 77 
9 9 7 10 5 7 2 81 79 
3 10 6 6 10 8 2 81 80 
1 9 6 4 10 9 4 87 85 84 83 
5 6 8 6 9 6 4 87 85 83 82 
6 10 4 10 5 8 3 87 85 82 
9 10 8 10 10 8 2 89 86 
4 6 8 4 7 4 2 89 86 
9 9 9 7 9 5 2 89 86 
3 6 7 7 10 10 1 86 
10 7 10 5 5 3 5 104 103 92 91 88 
4 8 10 6 10 6 4 104 103 91 88 
6 8 5 7 8 5 3 100 93 90 
9 10 3 8 6 6 3 103 100 90 
5 5 6 4 8 6 7 102 99 98 97 96 95 94 
7 6 10 9 10 10 4 101 99 98 94 
1 9 8 9 9 7 4 100 97 96 94 
3 8 7 6 9 7 2 101 95 
6 8 6 7 10 8 1 105 
8 7 7 8 10 10 1 105 
2 8 3 9 4 6 1 105 
3 10 7 7 10 9 1 105 
4 6 9 8 3 10 1 105 
4 8 8 10 6 6 1 105 
10 7 7 9 8 8 1 105 
3 10 6 6 10 9 1 105 
2 3 10 8 7 8 1 105 
5 7 10 10 6 10 1 105 
10 5 5 7 6 8 1 105 
0 0 0 0 0 0 1 702 
0 0 0 0 0 0 3 107 108 109 
4 5 4 6 3 1 4 119 116 112 110 
3 7 5 3 6 4 2 114 111 
2 9 6 8 7 8 2 119 111 
4 8 9 10 8 10 4 121 115 114 113 
8 5 7 9 9 9 4 121 120 115 113 
1 6 6 10 9 10 3 121 114 113 
1 9 3 8 10 7 4 130 123 122 118 
8 9 6 9 5 7 3 124 120 117 
5 9 9 7 9 8 2 122 117 
1 6 5 3 7 6 4 130 127 126 122 
9 9 7 6 6 7 4 130 128 126 123 
2 7 7 8 10 8 4 128 126 125 124 
3 5 6 9 9 9 4 130 128 125 123 
8 8 4 10 8 10 5 130 128 127 125 442 
2 8 4 10 10 7 2 130 123 
7 8 9 10 10 9 2 128 125 
4 8 10 7 10 8 2 132 127 
2 5 9 10 7 9 2 132 127 
10 7 10 6 10 5 2 132 129 
3 6 5 6 8 7 3 133 132 131 
2 5 8 8 4 5 1 129 
6 9 10 9 5 5 3 135 132 131 
9 8 5 5 3 6 2 133 131 
9 10 6 5 10 8 2 135 132 
10 10 10 10 5 9 4 139 138 136 134 
9 10 9 10 10 10 3 139 138 136 
6 6 7 5 4 4 3 139 136 135 
9 8 7 10 10 10 2 142 137 
10 10 10 10 9 5 6 156 144 143 142 141 140 
6 10 9 5 7 6 1 137 
10 7 10 6 5 8 6 156 155 144 143 141 140 
10 8 7 10 8 7 5 144 143 142 141 140 
10 10 10 7 8 5 5 156 155 143 141 140 
9 7 5 7 10 9 8 154 151 150 149 148 147 146 145 
1 9 8 8 6 6 5 151 150 149 148 146 
3 10 7 5 7 9 5 155 154 153 147 146 
6 10 9 8 5 2 4 152 151 150 149 
4 8 8 3 4 8 3 148 147 146 
4 3 8 5 6 10 2 153 152 
9 2 10 10 9 10 1 157 
3 6 7 5 10 10 1 157 
1 4 7 10 6 7 1 157 
4 10 8 8 7 5 1 157 
7 9 9 6 6 10 1 157 
1 9 10 6 7 8 1 157 
5 3 10 5 10 10 1 157 
5 5 5 9 8 7 1 157 
10 9 7 8 6 8 1 157 
5 10 8 9 10 10 1 157 
7 6 10 8 9 9 1 157 
0 0 0 0 0 0 1 702 
0 0 0 0 0 0 5 159 160 162 167 168 
4 0 0 0 2 0 4 166 165 164 163 
2 0 0 0 10 0 2 166 161 
5 0 0 0 10 0 3 164 163 688 
3 0 0 0 6 0 2 165 163 
9 0 0 0 4 0 1 169 
7 0 0 0 9 0 1 169 
5 0 0 0 10 0 1 169 
7 0 0 0 10 0 1 169 
8 0 0 0 9 0 1 169 
2 0 0 0 5 0 1 169 
0 0 0 0 0 0 5 222 264 276 318 360 
0 0 0 0 0 0 3 171 173 174 
3 3 3 5 8 3 3 180 176 172 
3 4 5 3 5 8 5 185 183 179 178 177 
5 7 7 6 10 9 2 178 175 
8 6 10 10 8 6 2 183 175 
3 9 9 9 10 5 4 185 184 179 177 
7 9 7 8 9 5 3 185 178 177 
10 10 7 5 7 5 4 194 187 186 182 
3 10 7 10 7 10 3 188 184 181 
8 7 7 6 4 9 2 186 181 
4 8 8 9 9 10 4 194 192 191 186 
6 10 7 7 5 5 4 194 191 190 187 
8 6 9 10 9 4 4 191 190 189 188 
8 9 8 6 7 6 4 194 190 189 187 
2 3 7 7 7 10 4 194 192 190 189 
7 10 10 5 4 5 2 194 187 
6 10 7 7 7 10 2 190 189 
8 10 9 10 10 9 2 197 192 
6 8 10 5 10 8 2 197 192 
9 9 6 6 10 8 2 197 193 
4 6 7 6 6 10 3 197 196 195 
10 10 9 9 9 8 3 197 196 195 
10 5 8 8 8 10 1 193 
4 10 6 6 9 5 2 196 195 
3 7 4 5 6 6 2 197 196 
4 9 10 10 9 7 4 203 202 200 198 
10 10 3 7 9 10 3 203 200 199 
5 4 6 8 7 7 3 203 202 200 
8 5 10 10 3 10 2 206 201 
7 6 10 9 7 9 6 220 208 207 206 205 204 
5 9 10 6 5 5 1 201 
8 8 7 8 6 10 6 220 219 208 207 205 204 
5 7 9 6 6 8 5 208 207 206 205 204 
8 5 6 7 4 5 5 220 219 207 205 204 
4 7 10 10 5 5 8 217 216 215 214 213 212 210 209 
5 9 4 4 9 5 7 217 216 215 214 213 211 210 
3 6 9 8 5 4 5 219 217 212 211 210 
10 6 10 8 10 8 4 218 216 215 214 
3 10 5 9 10 8 3 213 212 210 
4 6 8 10 9 9 2 218 211 
10 8 5 7 9 10 1 221 
9 8 10 6 10 9 2 221 679 
4 10 5 5 6 10 1 221 
2 3 6 8 6 7 1 221 
10 6 9 8 10 6 1 221 
2 8 4 10 8 9 1 221 
2 10 7 10 7 7 1 221 
6 5 10 10 9 9 1 221 
9 7 5 6 7 10 1 221 
7 8 10 9 10 5 1 221 
5 9 10 8 5 9 1 221 
0 0 0 0 0 0 1 702 
0 0 0 0 0 0 5 223 226 228 229 232 
1 2 2 4 8 0 3 231 227 224 
7 9 10 8 8 0 2 233 225 
8 6 8 3 10 0 5 262 238 237 234 230 
7 9 6 6 5 0 4 262 238 233 230 
10 5 10 4 6 0 9 262 251 247 243 241 239 238 237 236 
1 10 4 7 5 0 9 262 251 244 243 241 239 238 235 234 
6 9 7 6 10 0 5 250 243 241 235 231 
3 9 7 8 5 0 8 251 250 245 244 243 241 240 235 
2 10 9 6 7 0 3 251 245 233 
2 10 10 5 8 0 5 250 245 244 243 237 
3 9 8 10 10 0 4 247 244 240 237 
8 8 8 10 6 0 4 250 249 245 242 
9 10 10 10 9 0 4 252 249 247 242 
6 6 7 10 7 0 4 250 248 245 244 
1 5 5 8 4 0 5 256 255 252 246 694 
8 8 9 10 7 0 2 249 242 
9 9 3 10 10 0 2 256 240 
5 6 7 9 9 0 3 261 255 246 
5 5 10 7 10 0 3 261 256 246 
5 5 4 7 10 0 2 261 246 
3 5 8 6 6 0 2 255 246 
10 7 6 7 5 0 5 261 259 255 254 253 
4 7 9 9 9 0 4 261 259 255 253 
1 10 7 8 10 0 1 248 
10 5 10 9 8 0 4 261 260 259 255 
6 7 9 5 10 0 3 259 254 253 
2 7 10 7 10 0 3 259 256 254 
10 10 10 8 9 0 2 260 252 
9 7 10 9 7 0 1 252 
8 6 6 7 6 0 4 261 259 258 257 
5 5 2 10 10 0 2 260 257 
10 10 10 10 10 0 2 258 257 
4 6 7 8 4 0 2 258 257 
8 10 9 10 5 0 1 260 
6 10 5 5 4 0 1 263 
3 8 6 7 9 0 1 263 
2 6 10 6 7 0 1 263 
7 10 7 9 3 0 1 263 
7 10 9 6 8 0 1 263 
6 4 6 6 6 0 1 263 
0 0 0 0 0 0 1 702 
0 0 0 0 0 0 5 265 266 267 271 274 
4 0 0 4 0 0 3 273 270 269 
8 0 0 4 0 0 2 273 268 
6 0 0 10 0 0 2 273 272 
6 0 0 10 0 0 1 272 
9 0 0 7 0 0 1 272 
10 0 0 9 0 0 1 272 
6 0 0 10 0 0 1 273 
2 0 0 7 0 0 1 275 
7 0 0 7 0 0 2 275 619 
3 0 0 7 0 0 1 275 
0 0 0 0 0 0 5 402 434 446 478 510 
0 0 0 0 0 0 6 277 281 282 284 289 297 
10 3 0 4 2 3 3 285 280 278 
7 8 0 6 8 8 4 299 292 286 279 
1 5 0 7 9 5 8 316 309 306 301 298 293 290 283 
7 8 0 10 9 4 9 316 306 303 301 300 293 291 290 288 
10 10 0 10 10 5 3 303 298 285 
8 8 0 10 7 4 6 309 306 302 301 294 287 
4 8 0 8 9 10 6 314 303 302 300 294 287 
8 9 0 3 9 9 6 309 306 305 298 292 291 
2 10 0 9 4 8 5 305 300 299 292 290 
8 8 0 5 7 9 5 314 309 308 302 291 
6 5 0 9 9 5 2 308 291 
1 7 0 7 4 10 2 314 292 
10 9 0 10 6 7 2 301 295 
6 10 0 5 9 8 3 315 314 296 
3 6 0 7 4 9 3 315 295 398 
10 10 0 4 9 6 2 308 295 
9 6 0 6 10 7 2 314 295 
2 9 0 9 10 10 2 315 296 
5 8 0 10 8 9 1 296 
4 7 0 7 6 7 3 311 307 304 
8 4 0 10 7 9 2 309 302 
6 10 0 10 8 10 4 313 311 310 307 
4 7 0 8 7 8 2 310 301 
1 9 0 10 5 9 3 315 312 311 
4 8 0 8 6 7 2 313 308 
9 10 0 10 5 10 1 305 
10 5 0 7 8 6 1 305 
4 10 0 10 10 8 2 313 310 
1 7 0 8 4 10 2 315 311 
9 4 0 4 7 5 2 314 310 
3 4 0 4 10 10 1 312 
10 8 0 7 9 4 1 312 
2 8 0 6 10 10 1 310 
10 9 0 4 8 7 1 317 
10 6 0 9 5 7 1 317 
10 10 0 5 10 9 1 317 
9 9 0 10 9 10 1 317 
5 6 0 4 8 5 1 317 
3 5 0 10 9 3 1 317 
6 7 0 10 6 10 1 317 
0 0 0 0 0 0 1 702 
0 0 0 0 0 0 3 319 320 324 
3 4 3 0 7 2 4 327 323 322 321 
6 6 7 0 7 5 4 333 331 328 325 
2 6 5 0 8 10 7 344 335 333 332 331 330 328 
3 9 2 0 8 5 3 331 328 325 
1 5 6 0 9 7 6 347 335 331 330 329 326 
3 7 10 0 7 7 4 335 332 328 327 
4 2 6 0 10 7 4 347 335 329 326 
9 10 7 0 10 7 7 344 341 340 339 337 336 332 
5 9 9 0 10 6 4 344 343 337 331 
7 7 10 0 6 10 3 340 334 329 
3 10 10 0 5 10 6 346 343 341 338 337 336 
6 9 8 0 9 7 6 346 343 341 338 337 336 
9 10 7 0 10 5 5 346 341 339 336 334 
1 8 6 0 6 9 4 346 343 338 334 
8 10 5 0 10 8 5 350 347 346 343 339 
5 6 10 0 10 7 3 353 345 342 
8 10 10 0 2 5 3 349 346 343 
8 9 7 0 10 10 3 350 349 348 
6 7 10 0 10 7 3 350 349 348 
5 8 5 0 10 10 2 353 345 
4 8 10 0 8 6 2 349 345 
9 4 9 0 6 8 2 349 345 
6 6 7 0 6 6 2 342 614 
4 5 7 0 10 8 4 352 351 350 349 
9 6 10 0 9 10 1 345 
8 9 10 0 8 10 3 351 350 349 
8 6 6 0 5 4 2 358 348 
9 5 10 0 8 8 2 353 348 
6 9 7 0 5 10 2 358 348 
8 9 6 0 5 10 3 357 352 351 
1 7 10 0 6 10 4 357 356 355 354 
8 8 6 0 5 6 4 358 357 355 354 
3 6 8 0 8 6 3 356 355 354 
4 9 9 0 10 10 3 356 355 354 
5 10 7 0 5 7 3 356 355 354 
4 8 8 0 8 10 1 359 
2 9 7 0 3 9 1 359 
8 7 10 0 6 6 1 359 
6 7 6 0 10 5 1 359 
4 10 4 0 5 7 1 359 
0 0 0 0 0 0 1 702 
0 0 0 0 0 0 6 361 364 366 368 371 374 
9 0 4 6 3 3 3 369 365 362 
4 0 6 10 10 4 2 383 363 
9 0 10 5 9 6 8 400 386 379 378 376 375 370 367 
3 0 6 6 7 5 6 388 386 385 378 376 367 
1 0 4 8 6 9 8 400 389 386 384 377 376 375 372 
7 0 10 6 5 8 5 389 379 373 369 651 
8 0 4 6 10 9 6 399 389 387 384 380 373 
5 0 4 10 4 6 6 391 388 385 379 378 377 
8 0 6 5 10 8 5 391 384 383 378 376 
3 0 7 10 5 9 5 393 388 387 385 377 
1 0 9 7 10 10 4 399 398 386 381 
5 0 9 6 6 6 3 399 398 378 
9 0 10 8 6 8 2 393 377 
3 0 7 10 8 7 3 393 388 387 
2 0 8 7 5 5 2 385 381 
1 0 8 6 7 9 3 399 398 382 
8 0 8 6 10 10 2 398 381 
5 0 8 8 9 9 2 393 381 
9 0 6 10 10 10 2 393 382 
10 0 9 5 7 7 2 398 382 
10 0 8 8 10 7 1 382 
9 0 9 8 2 6 3 397 392 390 
6 0 8 8 7 10 2 390 386 
2 0 4 6 7 8 4 398 397 395 393 
6 0 10 10 10 10 4 399 396 395 394 
9 0 8 7 5 8 3 396 395 393 
1 0 9 8 8 6 2 394 391 
4 0 10 5 9 10 1 390 
10 0 4 9 10 10 1 391 
5 0 6 10 10 7 2 396 395 
6 0 10 6 5 4 2 398 397 
3 0 9 6 6 8 1 394 
5 0 8 10 9 7 1 394 
4 0 10 10 5 9 1 401 
3 0 10 10 10 6 1 401 
9 0 7 8 10 6 1 401 
9 0 3 8 10 6 1 401 
6 0 10 7 7 7 1 401 
10 0 8 7 6 8 1 401 
5 0 6 4 7 9 1 401 
0 0 0 0 0 0 1 702 
0 0 0 0 0 0 6 403 404 405 406 408 432 
9 6 0 0 4 5 4 416 410 409 407 
2 2 0 0 4 6 6 422 421 416 414 413 411 
10 7 0 0 10 8 5 431 422 414 411 410 
4 9 0 0 10 6 6 427 423 422 421 414 411 
4 10 0 0 10 3 4 427 422 421 411 
8 8 0 0 8 10 5 430 426 417 416 413 
8 4 0 0 10 10 3 426 413 412 
1 9 0 0 5 9 5 427 426 421 420 417 
6 7 0 0 5 9 2 426 412 
4 4 0 0 10 10 3 429 420 417 
7 7 0 0 6 9 3 427 420 418 
5 10 0 0 10 8 2 428 415 
8 10 0 0 10 8 1 417 
9 8 0 0 7 9 2 427 419 
4 4 0 0 3 7 1 418 
10 8 0 0 5 6 1 419 
3 7 0 0 8 6 1 424 
7 10 0 0 9 6 1 425 
9 6 0 0 9 10 1 428 
5 10 0 0 6 7 1 428 
7 8 0 0 6 5 1 426 
6 10 0 0 9 10 1 433 
2 9 0 0 9 6 1 433 
6 10 0 0 8 7 1 433 
10 7 0 0 10 9 1 433 
6 4 0 0 6 6 2 433 462 
8 10 0 0 5 7 1 433 
6 8 0 0 6 6 1 433 
1 5 0 0 7 9 1 433 
9 8 0 0 10 8 1 433 
0 0 0 0 0 0 1 702 
0 0 0 0 0 0 4 435 437 438 439 
8 0 0 0 0 2 2 440 436 
4 0 0 0 0 5 3 443 442 441 
1 0 0 0 0 4 3 444 441 570 
4 0 0 0 0 10 1 440 
5 0 0 0 0 7 1 440 
4 0 0 0 0 9 1 445 
3 0 0 0 0 10 1 445 
3 0 0 0 0 10 1 445 
10 0 0 0 0 10 1 445 
5 0 0 0 0 8 1 445 
0 0 0 0 0 0 5 542 564 586 608 630 
0 0 0 0 0 0 6 447 448 449 450 451 476 
9 3 0 2 6 0 3 454 453 452 
8 8 0 5 7 0 4 468 459 453 452 
3 10 0 10 10 0 3 458 453 452 
10 5 0 7 7 0 3 462 454 452 
6 8 0 10 10 0 4 475 462 457 454 
9 10 0 8 10 0 3 457 456 455 
6 7 0 6 2 0 3 463 462 460 
10 8 0 8 9 0 3 459 458 635 
9 9 0 8 7 0 2 463 461 
9 4 0 5 6 0 5 474 473 467 464 463 
5 4 0 10 9 0 1 461 
3 8 0 10 6 0 1 461 
9 10 0 5 6 0 1 461 
1 8 0 7 10 0 1 461 
6 5 0 5 9 0 6 474 473 472 470 467 464 
9 7 0 8 8 0 3 471 470 464 
7 8 0 5 4 0 3 472 471 470 
4 10 0 5 10 0 1 465 
5 7 0 10 8 0 1 466 
5 8 0 9 10 0 1 469 
3 8 0 10 8 0 1 471 
2 8 0 10 10 0 1 470 
5 7 0 9 7 0 1 477 
2 9 0 6 9 0 1 477 
8 7 0 10 8 0 1 477 
9 6 0 10 3 0 1 477 
8 6 0 8 5 0 1 477 
7 10 0 8 6 0 1 477 
3 9 0 7 5 0 1 477 
10 8 0 4 10 0 1 477 
0 0 0 0 0 0 1 702 
0 0 0 0 0 0 6 479 480 481 482 483 486 
6 5 0 0 6 5 4 493 487 485 484 
7 10 0 0 6 5 5 496 494 493 487 484 
5 5 0 0 8 10 4 494 493 487 484 
2 3 0 0 7 10 2 485 484 
6 6 0 0 6 10 3 489 488 485 
6 5 0 0 5 10 4 492 491 490 488 
9 8 0 0 10 5 5 496 494 491 490 652 
6 3 0 0 6 4 4 494 492 490 488 
4 10 0 0 7 10 1 489 
8 10 0 0 1 7 3 498 497 495 
1 10 0 0 6 10 3 498 497 495 
4 7 0 0 10 10 2 498 495 
5 7 0 0 9 6 2 498 495 
2 8 0 0 6 7 2 497 495 
6 8 0 0 10 8 2 498 495 
8 7 0 0 9 10 1 495 
6 7 0 0 10 6 4 508 505 500 499 
6 7 0 0 10 10 2 499 497 
9 8 0 0 7 8 5 508 505 503 502 501 
1 5 0 0 8 5 3 505 501 499 
10 8 0 0 9 4 2 507 503 
4 10 0 0 9 6 2 502 501 
2 7 0 0 10 9 2 507 506 
8 10 0 0 10 7 2 507 506 
8 10 0 0 9 9 1 504 
3 6 0 0 3 3 1 506 
7 10 0 0 5 6 1 507 
3 8 0 0 6 10 1 509 
3 9 0 0 8 8 1 509 
1 8 0 0 9 7 1 509 
0 0 0 0 0 0 1 702 
0 0 0 0 0 0 7 511 512 513 514 520 539 540 
3 4 4 0 4 0 4 535 518 516 515 
10 9 6 0 5 0 6 536 535 534 533 532 517 
1 5 5 0 5 0 6 538 536 531 527 526 518 
3 10 9 0 10 0 4 537 536 523 517 
4 7 6 0 7 0 3 533 527 517 
7 6 5 0 10 0 3 530 521 519 
10 6 9 0 5 0 2 530 519 
3 8 10 0 10 0 4 533 532 530 522 
7 10 4 0 5 0 3 531 526 522 
10 9 8 0 10 0 3 535 525 521 
4 7 7 0 10 0 3 534 526 634 
6 10 6 0 5 0 1 524 
4 2 10 0 10 0 1 524 
3 10 9 0 6 0 1 525 
5 10 10 0 7 0 1 528 
10 4 6 0 9 0 1 529 
7 5 8 0 6 0 1 532 
7 7 6 0 10 0 1 541 
2 7 10 0 7 0 1 541 
9 10 8 0 10 0 1 541 
7 10 8 0 4 0 1 541 
7 10 10 0 6 0 1 541 
2 10 6 0 8 0 1 541 
6 10 6 0 9 0 1 541 
9 4 8 0 6 0 1 541 
5 5 7 0 9 0 1 541 
4 7 10 0 9 0 1 541 
10 8 9 0 10 0 1 541 
3 8 9 0 4 0 1 541 
10 7 6 0 9 0 1 541 
0 0 0 0 0 0 1 702 
0 0 0 0 0 0 12 543 545 546 547 550 556 557 558 559 560 561 562 
6 0 0 3 0 3 2 553 544 
1 0 0 5 0 7 2 552 548 
3 0 0 6 0 7 2 555 552 
1 0 0 7 0 10 2 553 551 
5 0 0 8 0 9 2 552 551 
3 0 0 7 0 5 1 549 
7 0 0 6 0 10 1 551 
2 0 0 9 0 10 1 554 
2 0 0 10 0 7 1 563 
10 0 0 7 0 8 2 563 611 
9 0 0 10 0 8 1 563 
5 0 0 9 0 10 1 563 
8 0 0 7 0 10 1 563 
3 0 0 9 0 5 1 563 
9 0 0 8 0 8 1 563 
3 0 0 10 0 8 1 563 
9 0 0 9 0 9 1 563 
1 0 0 9 0 5 1 563 
10 0 0 6 0 3 1 563 
10 0 0 5 0 8 1 563 
0 0 0 0 0 0 1 702 
0 0 0 0 0 0 15 565 569 570 571 574 575 576 577 578 579 580 581 582 583 584 
3 0 0 2 0 5 1 566 
7 0 0 5 0 10 2 573 567 
8 0 0 5 0 5 1 568 
1 0 0 6 0 8 1 572 
5 0 0 7 0 8 1 573 
3 0 0 10 0 7 1 573 
9 0 0 10 0 7 1 572 
3 0 0 10 0 5 2 585 594 
4 0 0 8 0 10 1 585 
7 0 0 7 0 8 1 585 
8 0 0 10 0 6 1 585 
7 0 0 10 0 10 1 585 
1 0 0 5 0 4 1 585 
1 0 0 10 0 4 1 585 
10 0 0 10 0 8 1 585 
2 0 0 6 0 10 1 585 
10 0 0 5 0 6 1 585 
3 0 0 8 0 9 1 585 
5 0 0 8 0 10 1 585 
7 0 0 8 0 10 1 585 
0 0 0 0 0 0 1 702 
0 0 0 0 0 0 9 587 588 589 590 594 595 596 597 606 
2 0 10 0 3 0 5 605 604 603 602 593 
3 0 3 0 6 0 4 605 601 600 591 
1 0 4 0 10 0 3 601 592 671 
7 0 7 0 6 0 2 601 593 
6 0 8 0 10 0 3 603 602 598 
7 0 10 0 10 0 1 593 
2 0 8 0 5 0 2 600 598 
8 0 6 0 9 0 2 602 598 
1 0 8 0 10 0 2 604 601 
2 0 10 0 10 0 2 600 599 
2 0 10 0 8 0 1 598 
8 0 8 0 7 0 1 599 
3 0 8 0 2 0 1 607 
10 0 7 0 8 0 1 607 
2 0 5 0 9 0 1 607 
3 0 8 0 6 0 1 607 
7 0 5 0 4 0 1 607 
1 0 8 0 7 0 1 607 
8 0 7 0 10 0 1 607 
3 0 10 0 10 0 1 607 
0 0 0 0 0 0 1 702 
0 0 0 0 0 0 6 609 610 611 612 615 616 
4 2 3 0 0 0 3 628 621 614 
9 7 6 0 0 0 3 628 618 613 
5 9 9 0 0 0 2 619 613 
8 10 10 0 0 0 5 628 627 620 618 617 
10 8 10 0 0 0 4 627 623 621 617 
6 5 4 0 0 0 4 627 623 618 617 
1 5 2 0 0 0 4 627 623 621 617 
4 5 10 0 0 0 3 628 621 617 
3 10 5 0 0 0 3 626 625 624 
9 5 10 0 0 0 2 626 622 
2 7 6 0 0 0 2 628 623 
9 10 8 0 0 0 2 625 623 
5 10 7 0 0 0 1 622 
7 5 9 0 0 0 1 624 
6 10 5 0 0 0 1 624 
7 10 9 0 0 0 1 629 
7 10 8 0 0 0 1 629 
7 10 10 0 0 0 1 629 
9 9 9 0 0 0 1 629 
1 3 10 0 0 0 1 629 
0 0 0 0 0 0 1 702 
0 0 0 0 0 0 5 631 632 633 636 637 
8 0 0 0 2 0 2 635 634 
8 0 0 0 6 0 2 638 634 
7 0 0 0 6 0 2 640 638 
6 0 0 0 9 0 1 639 
8 0 0 0 9 0 1 638 
8 0 0 0 8 0 1 639 
7 0 0 0 10 0 1 638 
8 0 0 0 9 0 1 641 
1 0 0 0 10 0 1 641 
1 0 0 0 6 0 1 641 
0 0 0 0 0 0 5 642 654 666 678 690 
0 0 0 0 0 0 4 643 644 645 647 
8 0 0 0 0 2 4 652 651 650 646 
1 0 0 0 0 4 5 652 651 650 649 648 
7 0 0 0 0 6 2 651 646 
1 0 0 0 0 9 2 649 648 
3 0 0 0 0 10 2 650 648 
10 0 0 0 0 10 1 653 
6 0 0 0 0 6 1 653 
9 0 0 0 0 10 1 653 
5 0 0 0 0 8 1 653 
1 0 0 0 0 10 1 653 
0 0 0 0 0 0 1 702 
0 0 0 0 0 0 4 655 656 658 659 
6 7 0 0 0 0 3 664 660 657 
6 10 0 0 0 0 3 663 661 660 
4 3 0 0 0 0 1 661 
1 2 0 0 0 0 1 662 
10 7 0 0 0 0 1 660 
3 10 0 0 0 0 1 665 
3 8 0 0 0 0 1 665 
7 8 0 0 0 0 1 665 
2 10 0 0 0 0 1 665 
6 10 0 0 0 0 1 665 
0 0 0 0 0 0 1 702 
0 0 0 0 0 0 4 667 670 671 672 
5 0 2 0 0 0 3 676 669 668 
3 0 10 0 0 0 3 675 674 673 
1 0 7 0 0 0 2 675 673 
5 0 8 0 0 0 2 674 673 
8 0 9 0 0 0 2 674 673 
7 0 10 0 0 0 1 673 
3 0 6 0 0 0 1 677 
10 0 6 0 0 0 1 677 
4 0 10 0 0 0 1 677 
10 0 7 0 0 0 1 677 
0 0 0 0 0 0 1 702 
0 0 0 0 0 0 5 679 681 682 683 688 
1 0 4 0 0 0 2 687 680 
4 0 6 0 0 0 2 685 684 
4 0 3 0 0 0 1 686 
5 0 9 0 0 0 1 684 
6 0 9 0 0 0 1 684 
7 0 10 0 0 0 1 689 
2 0 9 0 0 0 1 689 
4 0 7 0 0 0 1 689 
8 0 8 0 0 0 1 689 
10 0 10 0 0 0 1 689 
0 0 0 0 0 0 1 702 
0 0 0 0 0 0 5 691 693 698 699 700 
1 0 0 0 4 0 4 697 696 695 692 
7 0 0 0 6 0 1 694 
8 0 0 0 4 0 1 694 
4 0 0 0 9 0 1 701 
4 0 0 0 10 0 1 701 
3 0 0 0 8 0 1 701 
1 0 0 0 10 0 1 701 
8 0 0 0 7 0 1 701 
2 0 0 0 9 0 1 701 
6 0 0 0 8 0 1 701 
0 0 0 0 0 0 1 702 
0 0 0 0 0 0 0 
